* ENCODING=ISO-8859-1
NAME          CPLEX
ROWS
 N  obj1    
 G  c1      
 G  c2      
 G  c3      
 G  c4      
 G  c5      
 G  c6      
 G  c7      
 G  c8      
 G  c9      
 G  c10     
 G  c11     
 G  c12     
 G  c13     
 G  c14     
 G  c15     
 G  c16     
 G  c17     
 G  c18     
 G  c19     
 G  c20     
 G  c21     
 G  c22     
 G  c23     
 G  c24     
 G  c25     
 G  c26     
 G  c27     
 G  c28     
 G  c29     
 G  c30     
 G  c31     
 G  c32     
 G  c33     
 G  c34     
 G  c35     
 G  c36     
 G  c37     
 G  c38     
 G  c39     
 G  c40     
 G  c41     
 G  c42     
 G  c43     
 G  c44     
 G  c45     
 G  c46     
 G  c47     
 G  c48     
 G  c49     
 G  c50     
 G  c51     
 G  c52     
 G  c53     
 G  c54     
 G  c55     
 G  c56     
 G  c57     
 G  c58     
 G  c59     
 G  c60     
COLUMNS
    MARK0000  'MARKER'                 'INTORG'
    x1        obj1                            1
    x1        c19                           534
    x1        c52                           363
    x1        c53                           115
    x2        obj1                            1
    x2        c3                            339
    x2        c10                           338
    x2        c23                           470
    x2        c24                           145
    x2        c26                           887
    x2        c29                           195
    x2        c36                           790
    x2        c50                           883
    x2        c53                           859
    x3        obj1                            1
    x3        c3                            645
    x3        c11                           215
    x3        c15                           758
    x3        c46                           363
    x4        obj1                            1
    x4        c7                            831
    x4        c19                           527
    x4        c35                           280
    x4        c47                           958
    x4        c48                           111
    x4        c54                           932
    x4        c59                           142
    x5        obj1                            1
    x5        c2                            894
    x5        c3                            905
    x5        c20                           863
    x5        c59                           612
    x6        obj1                            1
    x6        c11                           710
    x6        c29                           628
    x6        c31                           605
    x6        c35                           730
    x6        c38                           217
    x6        c56                           403
    x6        c58                           139
    x7        obj1                            1
    x7        c10                           960
    x7        c21                           455
    x7        c23                           681
    x7        c25                           520
    x7        c26                           992
    x7        c32                           767
    x7        c44                           555
    x7        c47                           441
    x7        c60                           263
    x8        obj1                            1
    x8        c3                            504
    x8        c8                            433
    x8        c17                           630
    x8        c18                           439
    x8        c20                           299
    x8        c53                           847
    x8        c57                           167
    x9        obj1                            1
    x9        c3                            972
    x9        c21                           198
    x9        c22                           753
    x9        c26                           469
    x9        c31                           951
    x9        c36                           334
    x9        c43                           954
    x9        c53                           953
    x9        c60                           839
    x10       obj1                            1
    x10       c16                           405
    x10       c51                           403
    x10       c53                           735
    x10       c58                           941
    x11       obj1                            1
    x11       c30                           339
    x11       c44                           121
    x11       c46                           471
    x11       c54                           632
    x11       c58                           448
    x12       obj1                            1
    x12       c1                            532
    x12       c4                            152
    x12       c11                           339
    x12       c14                           476
    x12       c32                           831
    x12       c35                           591
    x12       c39                           739
    x12       c48                           172
    x13       obj1                            1
    x13       c1                            355
    x13       c20                           474
    x13       c24                           551
    x13       c35                           337
    x13       c44                           909
    x13       c54                           753
    x14       obj1                            1
    x14       c16                           772
    x14       c17                           589
    x14       c21                           904
    x14       c44                           521
    x14       c51                           641
    x14       c53                           968
    x15       obj1                            1
    x15       c32                           101
    x15       c43                           868
    x15       c46                           736
    x15       c60                           992
    x16       obj1                            1
    x16       c1                            794
    x16       c8                            792
    x16       c24                           603
    x16       c32                           489
    x16       c38                           504
    x16       c41                           502
    x16       c51                           794
    x16       c59                           965
    x17       obj1                            1
    x17       c6                            247
    x17       c10                           860
    x17       c20                           942
    x17       c37                           478
    x17       c41                           687
    x17       c52                           195
    x17       c54                           253
    x18       obj1                            1
    x18       c5                            912
    x18       c28                           511
    x18       c33                           461
    x18       c55                           746
    x18       c59                           408
    x19       obj1                            1
    x19       c6                            366
    x19       c14                           521
    x19       c21                           521
    x19       c30                           529
    x19       c34                           211
    x19       c48                           590
    x19       c53                           265
    x19       c55                           574
    x20       obj1                            1
    x20       c21                           854
    x20       c37                           851
    x20       c39                           289
    x20       c40                           274
    x20       c50                           162
    x20       c51                           584
    x21       obj1                            1
    x21       c8                            596
    x21       c9                            731
    x21       c46                           289
    x21       c56                           298
    x22       obj1                            1
    x22       c15                           587
    x22       c44                           952
    x22       c51                           519
    x22       c55                           895
    x23       obj1                            1
    x23       c5                            849
    x23       c8                            630
    x23       c10                           247
    x23       c12                           863
    x23       c21                           370
    x23       c25                           974
    x23       c37                           192
    x23       c46                           417
    x23       c50                           157
    x23       c52                           907
    x24       obj1                            1
    x24       c7                            639
    x24       c25                           457
    x24       c32                           853
    x24       c48                           703
    x24       c49                           401
    x24       c50                           933
    x25       obj1                            1
    x25       c2                            868
    x25       c11                           356
    x25       c55                           871
    x25       c60                           173
    x26       obj1                            1
    x26       c3                            155
    x26       c5                            105
    x26       c20                           315
    x26       c34                           292
    x26       c36                           170
    x26       c37                           829
    x26       c50                           359
    x26       c51                           583
    x26       c55                           279
    x27       obj1                            1
    x27       c2                            969
    x27       c8                            729
    x27       c16                           578
    x27       c22                           159
    x27       c34                           967
    x27       c40                           108
    x28       obj1                            1
    x28       c1                            242
    x28       c8                            792
    x28       c13                           786
    x28       c38                           432
    x28       c57                           823
    x29       obj1                            1
    x29       c4                            105
    x29       c8                            623
    x29       c27                           431
    x29       c40                           893
    x29       c45                           914
    x29       c52                           560
    x30       obj1                            1
    x30       c15                           613
    x30       c24                           262
    x30       c30                           560
    x30       c39                           747
    x30       c47                           517
    x30       c48                           262
    x30       c55                           961
    x30       c59                           719
    x31       obj1                            1
    x31       c14                           680
    x31       c19                           102
    x31       c23                           402
    x31       c30                           596
    x31       c49                           751
    x31       c57                           197
    x31       c60                           754
    x32       obj1                            1
    x32       c6                            522
    x32       c9                            566
    x32       c13                           885
    x32       c16                           936
    x32       c27                           398
    x32       c46                           304
    x32       c47                           703
    x32       c56                           290
    x33       obj1                            1
    x33       c18                           608
    x33       c20                           670
    x33       c21                           862
    x33       c32                           833
    x33       c35                           398
    x33       c54                           733
    x33       c59                           522
    x34       obj1                            1
    x34       c11                           306
    x34       c17                           973
    x34       c22                           682
    x34       c28                           770
    x34       c35                           929
    x34       c38                           151
    x34       c41                           886
    x34       c47                           355
    x35       obj1                            1
    x35       c5                            727
    x35       c6                            314
    x35       c8                            233
    x35       c10                           276
    x35       c35                           299
    x35       c40                           137
    x35       c51                           499
    x35       c52                           716
    x35       c59                           275
    x36       obj1                            1
    x36       c18                           180
    x36       c33                           659
    x36       c41                           357
    x36       c55                           868
    x37       obj1                            1
    x37       c7                            487
    x37       c37                           917
    x37       c40                           318
    x38       obj1                            1
    x38       c6                            386
    x38       c11                           279
    x38       c13                           202
    x38       c31                           284
    x39       obj1                            1
    x39       c8                            377
    x39       c9                            482
    x39       c25                           980
    x39       c32                           172
    x39       c47                           124
    x40       obj1                            1
    x40       c10                           251
    x40       c12                           664
    x40       c14                           790
    x40       c16                           798
    x40       c28                           877
    x40       c30                           255
    x40       c60                           551
    x41       obj1                            1
    x41       c3                            683
    x41       c11                           821
    x41       c16                           810
    x41       c18                           872
    x41       c25                           136
    x41       c26                           244
    x41       c29                           710
    x41       c33                           754
    x41       c34                           857
    x41       c45                           186
    x42       obj1                            1
    x42       c7                            280
    x42       c11                           744
    x42       c29                           343
    x42       c39                           818
    x42       c42                           538
    x42       c43                           629
    x43       obj1                            1
    x43       c3                            760
    x43       c54                           863
    x44       obj1                            1
    x44       c13                           327
    x44       c18                           798
    x44       c20                           515
    x44       c42                           495
    x45       obj1                            1
    x45       c13                           129
    x45       c15                           289
    x45       c29                           104
    x45       c58                           226
    x46       obj1                            1
    x46       c7                            972
    x46       c10                           647
    x46       c13                           865
    x46       c22                           308
    x46       c23                           805
    x46       c32                           114
    x46       c34                           993
    x46       c38                           358
    x47       obj1                            1
    x47       c17                           399
    x47       c19                           604
    x47       c27                           841
    x47       c31                           121
    x47       c38                           619
    x47       c44                           346
    x47       c59                           545
    x48       obj1                            1
    x48       c1                            433
    x48       c4                            809
    x48       c15                           551
    x48       c21                           817
    x48       c30                           564
    x48       c49                           710
    x48       c56                           888
    x48       c58                           891
    x49       obj1                            1
    x49       c48                           232
    x49       c60                           510
    x50       obj1                            1
    x50       c24                           143
    x50       c25                           317
    x50       c29                           930
    x50       c33                           966
    x50       c36                           369
    x50       c51                           516
    x50       c52                           300
    x51       obj1                            1
    x51       c2                            753
    x51       c10                           230
    x51       c12                           565
    x51       c28                           657
    x51       c41                           674
    x51       c47                           649
    x51       c52                           607
    x52       obj1                            1
    x52       c4                            732
    x52       c5                            293
    x52       c12                           610
    x52       c16                           434
    x52       c20                           415
    x52       c21                           886
    x52       c33                           266
    x52       c44                           402
    x53       obj1                            1
    x53       c1                            593
    x53       c32                           386
    x53       c34                           522
    x53       c37                           425
    x53       c44                           883
    x53       c49                           947
    x53       c53                           463
    x53       c54                           399
    x54       obj1                            1
    x54       c5                            757
    x54       c6                            638
    x54       c25                           847
    x54       c29                           455
    x54       c33                           141
    x54       c36                           847
    x54       c39                           270
    x54       c49                           821
    x55       obj1                            1
    x55       c1                            905
    x55       c17                           379
    x55       c53                           240
    x55       c55                           962
    x55       c60                           974
    x56       obj1                            1
    x56       c4                            983
    x56       c38                           693
    x56       c46                           263
    x56       c54                           964
    x57       obj1                            1
    x57       c10                           736
    x57       c12                           959
    x57       c20                           270
    x57       c25                           279
    x57       c30                           787
    x57       c42                           287
    x57       c57                           178
    x58       obj1                            1
    x58       c4                            899
    x58       c17                           135
    x58       c25                           964
    x58       c34                           365
    x58       c45                           427
    x58       c50                           803
    x58       c56                           898
    x59       obj1                            1
    x59       c1                            599
    x59       c3                            850
    x59       c30                           238
    x59       c51                           822
    x59       c58                           889
    x59       c60                           771
    x60       obj1                            1
    x60       c5                            985
    x60       c11                           268
    x60       c42                           727
    x60       c45                           882
    x60       c52                           161
    x60       c57                           876
    x60       c58                           380
    x60       c59                           725
    MARK0001  'MARKER'                 'INTEND'
RHS
    rhs       c1                           2227
    rhs       c2                           1742
    rhs       c3                           2907
    rhs       c4                           1840
    rhs       c5                           2314
    rhs       c6                           1237
    rhs       c7                           1605
    rhs       c8                           2603
    rhs       c9                            890
    rhs       c10                          2273
    rhs       c11                          2019
    rhs       c12                          1831
    rhs       c13                          1597
    rhs       c14                          1234
    rhs       c15                          1399
    rhs       c16                          2367
    rhs       c17                          1553
    rhs       c18                          1449
    rhs       c19                           884
    rhs       c20                          2382
    rhs       c21                          2934
    rhs       c22                           951
    rhs       c23                          1179
    rhs       c24                           852
    rhs       c25                          2737
    rhs       c26                          1296
    rhs       c27                           835
    rhs       c28                          1408
    rhs       c29                          1683
    rhs       c30                          1934
    rhs       c31                           981
    rhs       c32                          2273
    rhs       c33                          1624
    rhs       c34                          2104
    rhs       c35                          1782
    rhs       c36                          1255
    rhs       c37                          1846
    rhs       c38                          1487
    rhs       c39                          1432
    rhs       c40                           865
    rhs       c41                          1553
    rhs       c42                          1024
    rhs       c43                          1226
    rhs       c44                          2345
    rhs       c45                          1205
    rhs       c46                          1422
    rhs       c47                          1874
    rhs       c48                          1035
    rhs       c49                          1815
    rhs       c50                          1649
    rhs       c51                          2681
    rhs       c52                          1905
    rhs       c53                          2723
    rhs       c54                          2765
    rhs       c55                          3078
    rhs       c56                          1389
    rhs       c57                          1121
    rhs       c58                          1957
    rhs       c59                          2457
    rhs       c60                          2914
BOUNDS
 LI bnd       x1        0
 LI bnd       x2        0
 LI bnd       x3        0
 LI bnd       x4        0
 LI bnd       x5        0
 LI bnd       x6        0
 LI bnd       x7        0
 LI bnd       x8        0
 LI bnd       x9        0
 LI bnd       x10       0
 LI bnd       x11       0
 LI bnd       x12       0
 LI bnd       x13       0
 LI bnd       x14       0
 LI bnd       x15       0
 LI bnd       x16       0
 LI bnd       x17       0
 LI bnd       x18       0
 LI bnd       x19       0
 LI bnd       x20       0
 LI bnd       x21       0
 LI bnd       x22       0
 LI bnd       x23       0
 LI bnd       x24       0
 LI bnd       x25       0
 LI bnd       x26       0
 LI bnd       x27       0
 LI bnd       x28       0
 LI bnd       x29       0
 LI bnd       x30       0
 LI bnd       x31       0
 LI bnd       x32       0
 LI bnd       x33       0
 LI bnd       x34       0
 LI bnd       x35       0
 LI bnd       x36       0
 LI bnd       x37       0
 LI bnd       x38       0
 LI bnd       x39       0
 LI bnd       x40       0
 LI bnd       x41       0
 LI bnd       x42       0
 LI bnd       x43       0
 LI bnd       x44       0
 LI bnd       x45       0
 LI bnd       x46       0
 LI bnd       x47       0
 LI bnd       x48       0
 LI bnd       x49       0
 LI bnd       x50       0
 LI bnd       x51       0
 LI bnd       x52       0
 LI bnd       x53       0
 LI bnd       x54       0
 LI bnd       x55       0
 LI bnd       x56       0
 LI bnd       x57       0
 LI bnd       x58       0
 LI bnd       x59       0
 LI bnd       x60       0
ENDATA
